11,1	0,0	13,6	8,3	0,0	0,0	0,0	0,0	0,0	6,8
5,1	14,2	0,0	18,8	17,1	0,0	0,0	14,5	0,0	0,0
0,0	0,0	6,1	0,0	16,4	11,5	0,0	0,0	10,2	0,0
5,9	0,0	5,6	0,0	0,0	0,0	15,8	0,0	0,0	0,0
0,0	6,0	0,0	16,6	11,0	0,0	0,0	14,3	0,0	0,0
0,0	10,2	13,4	0,0	8,0	8,7	0,0	0,0	8,1	0,0
0,0	8,6	0,0	12,5	0,0	0,0	12,9	0,0	0,0	16,8
14,1	0,0	16,8	0,0	0,0	0,0	0,0	0,0	0,0	14,6
0,0	7,1	0,0	7,6	10,3	0,0	0,0	7,3	0,0	0,0
0,0	0,0	6,5	0,0	0,0	12,9	8,3	0,0	0,0	11,8
									
3,2	5,0	4,8	4,5	3,7	3,6	3,4	2,7	3,6	3,5
